
Gurobi 9.1.0 (win64) logging started Sun Dec 13 17:44:16 2020

Changed value of parameter LogFile to logs/iteration15
   Prev:   Default: 
Gurobi Optimizer version 9.1.0 build v9.1.0rc0 (win64)
Thread count: 4 physical cores, 8 logical processors, using up to 8 threads
Optimize a model with 136 rows, 836 columns and 3354 nonzeros
Model fingerprint: 0x63cd9c5f
Coefficient statistics:
  Matrix range     [1e+00, 1e+00]
  Objective range  [1e+03, 4e+03]
  Bounds range     [0e+00, 0e+00]
  RHS range        [1e+00, 1e+00]
Presolve removed 15 rows and 16 columns
Presolve time: 0.00s
Presolved: 121 rows, 820 columns, 3333 nonzeros

Iteration    Objective       Primal Inf.    Dual Inf.      Time
       0    6.6232833e+04   9.100000e+01   0.000000e+00      0s
     247    9.5945167e+04   0.000000e+00   0.000000e+00      0s

Solved in 247 iterations and 0.01 seconds
Optimal objective  9.594516667e+04

Solutionx[24] 1.000000 
x[26] 0.500000 
x[27] 0.500000 
x[28] 0.250000 
x[37] 0.750000 
x[41] 0.500000 
x[43] 0.500000 
x[45] 1.000000 
x[64] 1.000000 
x[67] 1.000000 
x[70] 1.000000 
x[72] 1.000000 
x[76] 1.000000 
x[77] 1.000000 
x[78] 1.000000 
x[93] 1.000000 
x[101] 1.000000 
x[104] 1.000000 
x[107] 1.000000 
x[111] 1.000000 
x[118] 1.000000 
x[121] 1.000000 
x[124] 1.000000 
x[125] 1.000000 
x[129] 1.000000 
x[130] 1.000000 
x[131] 1.000000 
x[132] 1.000000 
x[134] 1.000000 
x[135] 1.000000 
x[264] 0.500000 
x[810] 1.000000 
x[821] 1.000000 
x[905] 0.750000 
x[2903] 0.250000 
x[3092] 0.500000 
x[5967] 1.000000 
x[7883] 0.500000 
x[20743] 0.500000 
x[22226] 0.250000 
x[31580] 0.500000 
x[26614] 0.250000 
x[1078] 0.500000 
x[1212] 0.500000 
x[14876] 1.000000 
x[11407] 1.000000 
x[29867] 1.000000 
x[12011] 0.500000 
x[12864] 0.500000 
x[10657] 0.500000 
x[4664] 0.500000 
x[11757] 1.000000 
x[10840] 0.500000 
x[19131] 0.500000 
x[14661] 1.000000 
x[12247] 1.000000 
x[28684] 1.000000 
x[17131] 1.000000 
x[25678] 1.000000 
x[17081] 1.000000 
x[6426] 1.000000 
x[14971] 1.000000 
x[2173] 1.000000 
x[15890] 0.500000 
x[22019] 0.500000 
